h=9;
w=9;
s=3;
b=[|0,0,0,0,4,6,9,0,0|0,4,0,0,0,0,2,0,6|0,0,0,5,0,0,0,1,0|7,8,6,4,2,9,1,3,0|3,5,4,0,0,0,0,0,9|2,9,1,0,5,8,0,7,4|0,1,0,0,0,5,7,0,0|0,3,0,8,0,7,0,0,0|8,0,5,1,0,0,0,0,0|];
t=[|1,0,0,1,0,0,1,1,1|1,0,1,1,1,1,0,0,0|1,0,1,1,0,0,0,1,1|1,0,0,0,0,1,1,1,1|1,1,0,0,1,1,0,0,1|0,1,1,1,1,0,0,1,0|0,1,1,0,1,1,1,0,0|0,1,0,0,0,1,1,1,1|0,1,1,1,1,0,1,0,0|];
